npieces = 10;	
nplayers = 25;	
duration = [1, 6, 4, 8, 9, 5, 10, 5, 6, 4];
rehearsal = [[0, 0, 1, 1, 1, 1, 1, 1, 1, 0], [1, 1, 0, 1, 0, 0, 0, 1, 1, 0], [1, 1, 0, 1, 1, 1, 1, 0, 1, 0], [0, 0, 0, 1, 1, 1, 0, 0, 1, 0], [1, 1, 1, 0, 0, 1, 0, 1, 0, 0], [1, 1, 1, 1, 0, 0, 1, 1, 0, 1], [1, 1, 0, 0, 0, 1, 0, 0, 1, 0], [1, 1, 0, 0, 1, 0, 1, 1, 1, 1], [1, 0, 0, 0, 0, 1, 1, 1, 0, 1], [1, 0, 0, 1, 1, 1, 0, 0, 0, 1], [1, 1, 1, 0, 0, 0, 1, 1, 1, 1], [1, 0, 0, 1, 0, 0, 0, 1, 0, 1], [1, 0, 0, 1, 0, 0, 1, 1, 1, 0], [0, 1, 1, 0, 0, 1, 1, 1, 0, 1], [0, 1, 0, 0, 0, 0, 0, 1, 0, 1], [0, 0, 1, 1, 1, 1, 1, 1, 0, 0], [0, 0, 1, 1, 0, 0, 1, 0, 0, 0], [1, 1, 0, 0, 0, 0, 0, 0, 1, 1], [0, 0, 1, 1, 1, 0, 1, 0, 0, 1], [0, 0, 1, 0, 1, 1, 1, 1, 1, 1], [0, 0, 0, 0, 0, 0, 0, 0, 1, 1], [0, 1, 1, 1, 1, 1, 0, 0, 0, 1], [1, 0, 1, 1, 1, 0, 1, 0, 1, 1], [0, 0, 1, 1, 1, 1, 1, 0, 0, 1], [1, 1, 1, 1, 0, 0, 1, 0, 0, 1]];